# vtk DataFile Version 2.0
Output
ASCII
DATASET UNSTRUCTURED_GRID
POINTS        292          Float
52.5        57.5       0
37.5        57.5       0
52.5        53.75       0
37.5        53.75       0
14.9551        11.4175       0
13.5825        13.7051       0
11.25        15       0
8.58253        14.9551       0
6.29487        13.5825       0
5        11.25       0
5.04487        8.58253       0
6.41747        6.29487       0
8.75        5       0
11.4175        5.04487       0
13.7051        6.41747       0
15        8.75       0
32.5        0       0
0        0       0
32.5        20       0
27.5        20       0
27.5        48       0
28.0858        49.4142       0
29.5        50       0
72.5        50       0
72.5        61.25       0
16.25        61.25       0
16.25        50       0
16.25        20       0
0        20       0
49.5        57.5       0
46.5        57.5       0
43.5        57.5       0
40.5        57.5       0
40.5        53.75       0
43.5        53.75       0
46.5        53.75       0
49.5        53.75       0
29.7917        0       0
27.0833        0       0
24.375        0       0
21.6667        0       0
18.9583        0       0
16.25        0       0
13.5417        0       0
10.8333        0       0
8.125        0       0
5.41667        0       0
2.70833        0       0
32.5        17.1429       0
32.5        14.2857       0
32.5        11.4286       0
32.5        8.57143       0
32.5        5.71429       0
32.5        2.85714       0
30        20       0
27.5        45.2       0
27.5        42.4       0
27.5        39.6       0
27.5        36.8       0
27.5        34       0
27.5        31.2       0
27.5        28.4       0
27.5        25.6       0
27.5        22.8       0
69.6333        50       0
66.7667        50       0
63.9        50       0
61.0333        50       0
58.1667        50       0
55.3        50       0
52.4333        50       0
49.5667        50       0
46.7        50       0
43.8333        50       0
40.9667        50       0
38.1        50       0
35.2333        50       0
32.3667        50       0
72.5        58.4375       0
72.5        55.625       0
72.5        52.8125       0
19.0625        61.25       0
21.875        61.25       0
24.6875        61.25       0
27.5        61.25       0
30.3125        61.25       0
33.125        61.25       0
35.9375        61.25       0
38.75        61.25       0
41.5625        61.25       0
44.375        61.25       0
47.1875        61.25       0
50        61.25       0
52.8125        61.25       0
55.625        61.25       0
58.4375        61.25       0
61.25        61.25       0
64.0625        61.25       0
66.875        61.25       0
69.6875        61.25       0
16.25        52.8125       0
16.25        55.625       0
16.25        58.4375       0
16.25        22.7273       0
16.25        25.4546       0
16.25        28.1818       0
16.25        30.9091       0
16.25        33.6364       0
16.25        36.3636       0
16.25        39.0909       0
16.25        41.8182       0
16.25        44.5455       0
16.25        47.2727       0
2.70833        20       0
5.41667        20       0
8.125        20       0
10.8333        20       0
13.5417        20       0
0        2.85714       0
0        5.71429       0
0        8.57143       0
0        11.4286       0
0        14.2857       0
0        17.1429       0
27.8692        52.0322       0
2.89403        14.1087       0
2.64198        11.4201       0
10.8178        17.6939       0
17.7292        10.082       0
5.7282        2.94626       0
8.33511        2.60205       0
17.0116        13.9168       0
13.2774        16.4421       0
16.9069        6.89076       0
13.4169        4.03569       0
27.3113        2.37042       0
22.1943        2.07501       0
19.5191        2.31575       0
10.9807        2.42599       0
2.86499        2.96331       0
5.65201        17.042       0
24.7345        2.15398       0
16.6481        2.9609       0
19.4586        49.9181       0
18.4191        26.0826       0
18.4254        28.8206       0
18.4233        31.5467       0
18.3999        34.2606       0
18.3569        36.9336       0
18.2868        39.5594       0
18.1985        42.1283       0
18.1514        44.6355       0
18.3686        47.1302       0
18.4106        23.3328       0
30.8479        53.3936       0
25.8026        52.0739       0
22.6598        4.07405       0
18.5796        5.46405       0
8.21753        17.4156       0
20.4923        4.53575       0
18.0426        18.2648       0
20.6203        34.9043       0
20.472        40.1514       0
19.9126        46.6156       0
20.6433        29.4442       0
20.6418        26.6906       0
20.6476        32.1775       0
20.1329        44.8507       0
20.5662        37.5592       0
20.6291        23.9163       0
21.3029        47.7403       0
24.4535        46.6081       0
25.1884        27.8528       0
25.1708        25.0421       0
25.2058        30.6404       0
25.215        33.4234       0
25.2139        36.1979       0
25.1242        41.6535       0
24.9193        44.2731       0
25.1476        22.2168       0
25.1902        38.9426       0
19.1178        53.0377       0
69.6428        55.6068       0
69.6397        52.8026       0
21.8067        58.6312       0
24.6627        58.6275       0
30.4755        58.6436       0
33.3917        58.8231       0
36.2819        59.3601       0
47.2366        59.5749       0
55.3616        57.8612       0
58.2542        58.1173       0
61.116        58.2703       0
63.9652        58.3514       0
19.0118        55.8295       0
27.5706        58.544       0
2.91015        5.81632       0
29.7411        8.10702       0
29.548        10.8237       0
2.85575        17.0257       0
61.088        52.6612       0
63.9268        52.7405       0
58.266        52.5246       0
55.3945        54.6964       0
33.9721        53.1523       0
13.2914        18.1144       0
26.3376        53.462       0
25.4841        49.8309       0
29.812        16.8491       0
33.8411        56.3744       0
15.7843        18.1538       0
18.913        8.62547       0
22.2108        9.08351       0
22.1421        45.587       0
24.8974        4.34496       0
22.2633        51.0415       0
22.5438        43.3383       0
20.5812        21.14       0
25.089        19.39       0
69.6572        58.4165       0
19.0037        58.541       0
63.9393        55.5104       0
21.7541        56.0625       0
27.6476        55.7109       0
61.0981        55.386       0
24.5401        56.1262       0
58.2568        55.1532       0
29.6363        13.7935       0
2.65672        8.4681       0
26.2498        10.1491       0
27.0331        7.44124       0
21.7967        53.5088       0
66.7838        52.7771       0
40.7513        51.8877       0
66.8157        58.391       0
14.9696        15.9999       0
26.9339        13.5247       0
66.7964        55.5669       0
30.7358        56.1001       0
23.3842        48.7551       0
19.8093        11.4294       0
22.7487        40.8489       0
29.9034        5.33019       0
28.8802        53.6428       0
23.9084        11.1147       0
43.6654        51.9062       0
24.4014        51.7293       0
24.2458        53.7936       0
17.4913        15.9832       0
22.8527        38.2324       0
24.5358        13.6211       0
15.1654        5.09373       0
22.8995        35.5416       0
13.59        2.30236       0
19.4598        14.0299       0
22.4025        16.1964       0
22.918        32.7996       0
22.9171        30.0446       0
21.8056        13.4444       0
22.714        18.9297       0
22.9075        27.2723       0
22.8903        24.4748       0
22.851        21.6648       0
27.3077        16.6458       0
18.3637        20.578       0
29.9216        2.6151       0
45.3069        59.3445       0
42.8797        59.1123       0
40.7963        58.5741       0
55.4456        52.3213       0
52.5425        52.0253       0
49.5391        51.9416       0
46.5974        51.9174       0
37.9424        51.8373       0
35.571        51.5841       0
38.3866        60.0521       0
39.5579        59.3417       0
26.7922        50.854       0
17.1068        11.9599       0
24.8963        16.4211       0
18.8826        12.4444       0
19.9667        16.1615       0
20.3691        7.42059       0
21.8078        6.42271       0
27.3321        4.86144       0
20.8233        10.2125       0
22.2702        11.6596       0
20.3103        42.5979       0
20.3661        18.5691       0
23.6571        7.99283       0
22.9408        5.62134       0
24.6376        6.40257       0
CELLS      231   1155
4     35        272        271        36
4     209        187        186        238
4     124        22        154        243
4     100        181        194        101
4     26        143        181        100
4     191        226        224        192
4     269        270        70        69
4     138        13        12        130
4     138        44        43        253
4     46        45        130        129
4     196        119        118        139
4     46        129        139        47
4     196        228        120        119
4     8        140        199        125
4     140        114        113        199
4     127        116        115        158
4     210        205        132        235
4     4        278        131        5
4     250        244        229        236
4     227        208        263        236
4     214        141        135        284
4     160        264        27        210
4     169        165        144        153
4     148        147        161        168
4     277        21        22        124
4     237        234        193        221
4     91        90        266        189
4     32        268        276        1
4     125        122        121        126
4     190        0        2        203
4     92        29        0        93
4     267        268        32        31
4     3        1        209        204
4     3        273        233        33
4     33        233        245        34
4     34        245        272        35
4     16        53        265        37
4     52        51        197        242
4     136        156        159        137
4     136        40        39        141
4     41        137        142        42
4     253        43        42        142
4     130        45        44        138
4     139        129        11        196
4     48        18        54        208
4     48        208        227        49
4     285        211        282        212
4     156        136        141        214
4     53        52        242        265
4     236        229        198        227
4     162        287        150        149
4     178        177        56        55
4     172        174        257        260
4     146        145        164        166
4     165        164        145        144
4     64        23        80        183
4     183        80        79        182
4     192        193        97        96
4     66        201        200        67
4     202        226        203        269
4     71        70        270        271
4     72        71        271        272
4     73        72        272        245
4     74        73        245        233
4     75        74        233        273
4     75        273        274        76
4     77        204        154        22
4     24        99        219        78
4     102        220        81        25
4     82        184        185        83
4     186        195        223        238
4     186        187        86        85
4     187        188        87        86
4     89        276        268        267
4     267        266        90        89
4     92        91        189        29
4     93        0        190        94
4     190        191        95        94
4     191        192        96        95
4     221        224        200        201
4     219        182        79        78
4     207        20        21        277
4     184        220        194        222
4     81        220        184        82
4     103        153        144        104
4     104        144        145        105
4     105        145        146        106
4     106        146        147        107
4     107        147        148        108
4     108        148        149        109
4     109        149        150        110
4     110        150        151        111
4     152        163        170        143
4     113        28        123        199
4     140        158        115        114
4     205        127        6        132
4     118        17        47        139
4     228        196        11        10
4     126        121        120        228
4     122        125        199        123
4     83        185        195        84
4     9        8        125        126
4     158        140        8        7
4     10        9        126        228
4     7        6        127        158
4     15        128        278        4
4     128        15        133        211
4     12        11        129        130
4     117        205        210        27
4     132        6        5        235
4     235        5        131        248
4     133        15        14        251
4     40        136        137        41
4     251        134        253        142
4     14        13        134        251
4     135        38        37        265
4     282        157        159        283
4     141        39        38        135
4     157        142        137        159
4     251        142        157        133
4     143        26        112        152
4     152        112        111        151
4     153        103        27        264
4     172        173        62        61
4     174        175        256        257
4     175        174        60        59
4     176        180        249        252
4     177        180        57        56
4     151        167        163        152
4     171        178        55        20
4     173        179        63        62
4     204        77        76        274
4     231        222        194        181
4     207        277        155        246
4     211        133        157        282
4     289        283        290        291
4     279        250        236        263
4     179        218        19        63
4     147        146        166        161
4     176        175        59        58
4     168        162        149        148
4     216        241        177        178
4     167        151        150        287
4     174        172        61        60
4     260        261        173        172
4     180        177        241        249
4     175        176        252        256
4     153        264        217        169
4     213        171        239        170
4     207        239        171        20
4     261        262        179        173
4     58        57        180        176
4     178        171        213        216
4     259        262        217        288
4     215        143        170        239
4     64        183        232        65
4     222        225        185        184
4     186        85        84        195
4     204        209        238        154
4     188        1        276        275
4     30        29        189        266
4     67        200        202        68
4     192        224        221        193
4     237        221        201        232
4     98        234        219        99
4     98        97        193        234
4     215        231        181        143
4     155        206        247        246
4     284        242        197        230
4     197        51        50        198
4     50        49        227        198
4     197        198        229        230
4     201        66        65        232
4     237        182        219        234
4     269        69        68        202
4     2        270        269        203
4     205        117        116        127
4     124        206        155        277
4     54        19        263        208
4     262        259        218        179
4     188        187        209        1
4     230        229        289        291
4     213        170        163        167
4     242        284        135        265
4     216        213        167        287
4     241        216        287        162
4     160        248        281        288
4     248        131        254        281
4     263        19        218        279
4     220        102        101        194
4     243        154        238        223
4     225        223        195        185
4     206        223        225        247
4     226        191        190        203
4     200        224        226        202
4     246        247        231        215
4     289        229        244        212
4     183        182        237        232
4     222        231        247        225
4     243        223        206        124
4     160        210        235        248
4     250        258        286        244
4     207        246        215        239
4     128        211        285        240
4     284        230        291        214
4     249        241        162        168
4     286        285        212        244
4     254        131        278        280
4     252        249        168        161
4     250        279        255        258
4     259        288        281        255
4     256        252        161        166
4     281        254        258        255
4     259        255        279        218
4     257        256        166        164
4     240        258        254        280
4     260        257        164        165
4     286        258        240        285
4     261        260        165        169
4     262        261        169        217
4     264        160        288        217
4     266        267        31        30
4     276        89        88        275
4     270        2        36        271
4     274        273        3        204
4     275        88        87        188
4     280        278        128        240
4     134        13        138        253
4     283        159        156        290
4     282        283        289        212
4     290        156        214        291
CELL_TYPES      231
9
9
9
9
9
9
9
9
9
9
9
9
9
9
9
9
9
9
9
9
9
9
9
9
9
9
9
9
9
9
9
9
9
9
9
9
9
9
9
9
9
9
9
9
9
9
9
9
9
9
9
9
9
9
9
9
9
9
9
9
9
9
9
9
9
9
9
9
9
9
9
9
9
9
9
9
9
9
9
9
9
9
9
9
9
9
9
9
9
9
9
9
9
9
9
9
9
9
9
9
9
9
9
9
9
9
9
9
9
9
9
9
9
9
9
9
9
9
9
9
9
9
9
9
9
9
9
9
9
9
9
9
9
9
9
9
9
9
9
9
9
9
9
9
9
9
9
9
9
9
9
9
9
9
9
9
9
9
9
9
9
9
9
9
9
9
9
9
9
9
9
9
9
9
9
9
9
9
9
9
9
9
9
9
9
9
9
9
9
9
9
9
9
9
9
9
9
9
9
9
9
9
9
9
9
9
9
9
9
9
9
9
9
9
9
9
9
9
9
9
9
9
9
9
9
9
9
9
9
9
9
POINT_DATA      292
SCALARS SX_INTEGRATION_POINTS_SOLUTION FLOAT
LOOKUP_TABLE default
1158.87
886.231
888.016
1159.61
-585.599
-2497.98
-1451.81
1745.12
2149.24
1032.35
-379.586
-1567.72
-1455.38
340.026
1456.4
1121.23
-1436.8
1071.86
-402.508
-3027.59
-128.599
494.094
981.114
1325.27
1326.93
30.4711
92.5858
6736.57
-405.353
1407.45
1512.09
1531.5
1558.1
1513.27
1490.61
1496.49
1542.77
-1033.74
-685.569
-326.391
16.3038
315.34
529.859
424.722
142.977
-76.6962
82.5547
465.594
-317.333
451.633
99.3562
-75.9482
-121.049
-290.127
-1526.41
-199.574
-277.867
-323.917
-375.897
-432.248
-491.115
-556.872
-768.455
-1738.41
1090.44
1017.37
923.956
924.807
1017.4
1148.22
1206.95
1188.02
1158.45
1165.61
1195.83
1285.6
1220.45
1129.4
630.447
673.405
719.57
133.016
391.462
706.874
931.73
1056.77
1152.2
1275.84
1226.39
1214.25
1164.23
1175.72
1191.1
1189.45
1050.62
993.212
919.665
926.021
946.949
1234.92
180.47
102.884
74.3989
915.372
689.646
593.798
560.595
493.185
413.614
332.269
248.838
169.864
72.311
-572.095
-609.18
-507.89
2462.3
5629.81
184.882
-134.906
-368.352
225.761
115.963
-90.2619
863.941
903.288
355.86
1979.88
98.8006
-103.951
-31.2493
-1529.35
-448.636
573.852
483.477
-243.116
-2.2034
-25.0845
37.5279
55.6679
456.596
-173.121
117.224
244.928
-443.419
-635.044
344.322
-18.4657
-12.5919
10.9311
-216.134
3.42127
37.8789
259.702
812.251
817.225
141.182
382.547
677.114
136.149
1098.14
440.095
-19.3463
209.391
330.189
-23.1042
493.739
16.6183
-3.91568
201.825
148.508
-18.3781
299.06
-165.608
483.262
-372.502
212.735
-55.7102
-171.699
-491.317
1.42575
247.492
748.641
857.996
413.426
694.015
881.957
997.127
1028.6
1328.23
834.473
841.828
881.088
890.938
194.039
825.795
-707.044
65.285
332.889
155.641
891.043
889.334
886.482
757.739
796.096
3245.17
874.486
407.555
-39.795
723.444
2781.7
449.652
407.956
-37.4466
92.5495
438.32
-211.473
2008.23
-971.782
760.989
180.045
851.094
367.868
829.037
840.423
677.085
791.149
651.2
-266.335
629.307
199.969
490.234
859.127
1305.87
856.745
-1135.07
795.921
748.128
833.577
240.52
-252.653
-41.5286
11.0046
814.546
550.137
1322.22
623.093
648.034
-530.165
-22.8052
563.894
354.501
-21.1192
-31.0705
-544.827
521.254
-26.2347
-34.9814
51.8583
-133.607
-385.247
-491.209
-110.315
267.974
2520.23
-264.167
1339.3
1353.05
1374.76
922.021
1135.99
1313.55
1323.6
1162.88
1105.78
1244.22
1298.59
825.957
-621.946
635.822
-429.073
-129.638
446.623
292.03
-21.7263
319.729
469.936
131.656
753.249
409.228
299.227
348.485
SCALARS SX_NODAL_SOLUTION FLOAT
LOOKUP_TABLE default
1146.77
808.074
838.165
1145.7
-470.665
-2864.61
-2030.59
2151.24
2600.42
1189.92
-362.972
-1879.13
-2055.11
273.498
1904.18
1386.38
-1918.9
1516.57
-540.23
-4426.09
-330.638
393.689
1049.89
1497.03
1502.04
21.6335
139.775
8504.57
-571.624
1426.4
1556.23
1575.08
1614.95
1574.79
1534.58
1540.68
1615.09
-1296.24
-829.23
-392.022
24.8131
418.385
743.737
609.623
147.494
-185.427
-0.865353
558.151
-469.472
748.499
51.677
-219.183
-248.819
-255.024
-1979.86
-331.293
-481.87
-551.442
-638.799
-733.491
-836.359
-930.366
-1211.61
-2079.57
1161.66
1062.39
935.118
935.432
1055.97
1194.9
1217.83
1160.32
1106.46
1116.57
1168.66
1306.29
1262.26
1194.84
588.506
663.027
595.4
127.033
385.371
717.718
960.419
1106.62
1208.41
1293.71
1217.85
1190.73
1117.19
1110.44
1154.79
1192.51
1117.26
1038.03
931.215
938.774
966.931
1376.95
272.169
123.244
88.6011
820.313
1244.14
1040.57
1000.99
887.481
755.775
616.31
469.902
328.573
142.925
-763.66
-803.55
-712.68
2490.89
6181.47
212.549
-82.1539
-723.837
214.465
15.6584
-142.818
852.022
1049.87
147.83
2184.99
131.655
134.349
195.239
-1588.01
-956.962
522.306
590.534
-148.486
-5.61041
-123.92
-63.9694
74.4896
235.213
-185.525
84.551
313.738
-717.114
-1087.75
629.351
0.315478
15.988
58.3607
-337.256
38.2541
101.066
113.083
793.737
791.291
176.488
441.053
574.732
119.521
1097.4
790.362
3.89624
384.454
611.042
-59.4526
887.687
51.522
26.1877
241.234
211.106
-14.1278
562.171
-81.4676
852.035
-627.845
383.935
-68.3
-244.913
-132.733
18.6332
271.367
756.565
785.731
414.791
673.248
882.241
1042.35
1022.23
1325.7
808.892
837.316
879.293
885.207
206.987
803.092
-807.299
-98.2374
265.477
281.027
893.103
889.172
901.71
727.504
730.384
2030.37
889.874
371.708
593.123
692.38
2575.27
342.846
385.092
-24.037
117.934
436.937
-322.365
2495.92
-1206.24
779.729
199.804
837.791
353.735
826.281
825.35
672.39
770.988
702.388
-190.058
735.555
100.402
493.134
836.456
1311.85
833.949
-1033.48
731.534
720.979
839.626
299.85
-272.686
-38.1689
-1.16689
811.539
492.88
1338.83
631.9
641.998
-718.488
-12.3286
307.516
274.234
-11.7528
-220.674
-579.141
715.014
-19.9948
-32.8968
-65.8874
-68.604
-641.782
-922.73
-504.475
538.122
3033.28
-118.807
1338.93
1365.08
1361.04
965.805
1141.2
1297.19
1341.68
1220.57
1109.1
1252.82
1327.06
794.117
-551.163
714.67
-480.087
-28.3242
392.572
293.067
-20.4287
300.151
573.793
263.337
674.287
346.062
385.125
475.254
SCALARS SY_INTEGRATION_POINTS_SOLUTION FLOAT
LOOKUP_TABLE default
-76.4861
-93.0957
-152.531
-89.1379
4950.41
1923.36
-666.406
904.913
2844.41
4060.67
1490.79
-492.494
-681.199
728.656
3968.4
6841.83
-5811.6
4343.54
-580.102
-12069.8
-2586.16
-1923.81
-280.353
-65.3252
-63.4768
30.3245
2178.2
11954.8
-423.534
30.2201
22.9536
29.1379
32.4043
36.3014
17.6248
16.8151
47.604
-4244.65
-2688.38
-1247.57
129.203
1412.86
2313.85
1891.43
518.238
-386.164
427.147
2005.11
-2188.59
-2918.62
-4454.75
-4950.26
-5307.97
-5418
-2082.49
-4528.15
-5682.36
-6848.01
-8018.48
-9195.92
-10381
-11563.9
-12864
-14802.9
63.9383
46.6838
21.6715
19.99
36.0477
6.25579
-27.0391
6.87721
-23.204
-21.8162
3.18642
-13.9633
2.92765
34.7549
-278.196
-265.542
-248.763
55.5757
9.23271
-27.633
-20.7289
20.2958
29.3662
-44.4793
-14.6199
-6.86084
-24.0887
-37.1862
9.19193
-68.7927
57.7097
48.5353
23.1555
23.5801
27.2493
80.1872
1272.84
539.084
150.925
14890.2
12658
11573.9
10479.5
9348.11
8212.12
7073.56
5914.87
4690.9
3330.2
35.1867
357.612
102.989
-226.419
187.604
3837.99
2943.58
212.504
-365.862
-1099.56
-705.968
-877.174
731.651
1536.2
-449.707
3258.18
-232.43
-344.891
4442.2
1117.81
3387.64
1938.85
-2708.16
265.82
1302.92
540.697
1774.21
1345.71
-1270.2
2570.88
1128.34
8453.03
8366.64
6701.8
6420.69
5364.37
4379.08
3647.56
3287.97
2962.61
8081.04
-51.7563
-913.084
-285.237
1815.18
420.464
966.142
5810.22
1452.24
1803.73
1289.62
2496.82
2923.7
1608.17
1550.86
1678.57
2634.7
206.674
-2236.66
-7831.27
-8066.16
-7541.2
-5733.99
-5534.53
-3614.67
-2420.23
-7580.98
-4554.4
618.63
13.8036
6.47473
25.7262
-106.161
5.43174
30.1732
-18.1745
-40.311
39.44
40.7033
37.4912
25.524
355.745
-122.359
1577.26
-3786.36
-3788.93
137.345
36.4041
32.2102
50.2979
44.1897
8.23211
-295.931
-599.566
-766.36
-2877.7
48.6534
6382.58
2715.22
-117.385
-117.88
-1515.05
-221.05
-366.823
2873.37
-6437.42
18.3887
160.41
42.6955
58.1307
-226.215
39.8386
-214.09
50.2053
-3770.74
1732.5
-2052.51
-2567.64
-22.8767
42.2342
11.0461
42.9063
3292.36
-4020.53
54.0941
-38.7723
-1101.54
1760.82
-889.004
-4204.71
-417.358
-1217.41
2.7328
-607.229
-369.626
5299.89
-1348.63
-3224.61
2460.1
-1646.95
1879.95
2801.97
-514.289
-1906.93
-2141.36
-46.916
-2252.94
-2034.01
-1300.78
-984.335
-5924.52
8041.67
-4185.78
-7.61699
22.0212
25.149
15.5108
-56.3969
12.2844
5.26129
-44.5321
19.5623
4.22484
16.682
-1090.99
3683.58
-3984.12
2591.72
2845.51
1054
552.473
-2691.49
996.354
328.142
1568.03
3090.17
-618.688
-254.485
-1464.09
SCALARS SY_NODAL_SOLUTION FLOAT
LOOKUP_TABLE default
-103.761
-132.219
-209.179
-130.343
5209.52
1487.62
-1198.75
1017.23
3334.69
5130.14
1360.39
-755.211
-913
334.116
4367.75
7876.55
-6357.03
5089.09
-568.164
-13950.8
-2982.14
-2237.55
-236.755
-66.5888
-64.5277
24.0854
2384.63
14371.7
-614.432
42.2927
44.032
63.0056
68.0961
56.5936
31.6088
27.9377
76.4172
-4288.8
-2748.04
-1298.34
85.04
1418.7
2514.31
2062.11
489.743
-616.251
3.75426
1879.56
-1752.86
-2603.67
-4586.85
-5224.11
-5627.05
-5748.21
-1554.75
-4978.51
-6243.72
-7516.37
-8803.17
-10103.1
-11417
-12725.2
-14240.9
-16863.8
84.0109
60.4869
25.5224
23.5419
57.199
19.9223
-38.1087
9.40064
-41.4986
-38.3822
-0.287182
-9.25922
23.8085
70.8752
-370.58
-348.223
-351.944
70.0771
8.64664
-32.8637
-21.1337
37.9094
48.9228
-46.3281
-26.0993
-18.655
-47.9527
-75.0347
10.0096
-93.1058
75.2543
63.748
25.8143
27.8935
32.6042
148.674
1458.31
590.79
157.374
16596.6
13916.9
12746.9
11561.1
10310.3
9042.67
7766.8
6467.49
5098.21
3588.53
27.5569
386.903
-94.0297
-195.02
-705.319
4350.86
3217.61
-166.259
-736.659
-1558.91
-1003.44
-959.723
703.408
1065.88
-548.978
3083.43
-349.247
-329.987
4793.2
1281.29
3439.79
1870.91
-2550.23
336.534
1172.54
388.443
1873.96
1536.58
-1253.27
2601.7
1212.61
7998.67
7193.88
7074.2
6154.52
5370.19
4626.11
3628.06
3277.27
3030.46
8427.91
-54.9544
-939.262
-155.728
1882.79
242.503
883.05
6074.46
2354.94
1799.1
1474.13
2902.25
2892.15
2635.92
1541.25
1936.16
2945.74
244.117
-2319.36
-7436.03
-8033.97
-6496.1
-5836.53
-5280.29
-3786.23
-2533.06
-7030.56
-4338.95
713.485
55.7833
2.04785
25.6952
-122.461
-0.0192627
46.394
-25.2295
-76.1388
32.7553
37.9462
33.5653
24.3254
414.907
-150.444
1808.67
-4097.26
-3931.38
455.834
34.837
30.0526
58.1833
35.2814
9.91204
-1643.41
-566.51
-782.588
-2127.03
56.6781
7210.86
2758.24
-177.374
-239.752
-1362.56
-237.372
-580.77
3029.36
-5802.73
63.8982
176.324
34.001
21.4412
-212.954
27.6664
-227.833
46.4399
-3701.84
1715.98
-1929.1
-2644.12
-1.81367
36.048
14.9522
37.4668
3114.52
-4142.38
46.1288
10.1951
-1189.44
1610.89
-1075.34
-4209.94
-479.049
-1183.6
5.48157
-613.864
-417.064
5562.38
-1357.67
-3579.01
2438.24
-1658.66
1772.34
3012.33
-143.115
-1919.93
-2158.92
-238.803
-1322.57
-2505.86
-2492.82
-2009.03
-6532.17
8096.66
-4087.08
-12.0396
36.0045
57.4223
35.2741
-75.9611
15.2306
6.41032
-67.4124
62.2727
7.73922
31.0543
-1166.11
3984.33
-4170.89
2606.47
3264.08
1018.58
619.016
-2761.97
1031.08
634.537
1702.85
2807.2
-663.879
-121.684
-1459.39
SCALARS SXY_INTEGRATION_POINTS_SOLUTION FLOAT
LOOKUP_TABLE default
-102.147
153.445
119.195
-173.312
407.242
1125.38
1606.01
1930.48
1561.5
1619.28
1129.66
1398.55
974.451
974.05
1839.78
1160.11
721.382
775.648
419.382
1961.6
447.054
-165.426
-74.042
-191.81
190.561
40.326
507.457
4028.3
-193.388
-21.3207
16.5596
12.7542
0.546987
2.97068
4.81369
4.3635
6.00925
320.681
24.4398
-134.745
-156.064
-10.6708
319.286
752.621
922.475
867.258
513.703
557.567
1193.46
628.875
395.374
398.148
55.2323
222.877
2070.39
556.441
576.084
589.255
608.444
634.238
661.84
698.903
812.158
1522.34
-127.892
-50.6937
-14.1128
13.1676
37.5254
49.5222
12.0355
-3.27628
-2.00339
-1.57711
0.971208
-13.3655
-31.7401
-71.6875
-54.7995
27.7458
-95.8688
86.2913
138.949
119.915
65.9658
33.1786
43.2166
-37.1126
-0.883392
-16.5436
-18.9484
-9.19739
-24.1867
-93.8341
-112.965
-48.621
-13.4863
15.1939
45.7985
66.9371
363.484
226.95
99.4896
635.382
29.3321
70.8226
105.753
146.663
190.793
237.84
284.777
335.71
427.808
-148.44
167.785
464.444
714.07
1285.05
306.835
423.717
779.881
556.933
-7.5299
-196.202
158.488
494.374
1256.26
1363.14
623.184
727.07
740.087
82.5757
1182.89
305.58
1146.58
-121.494
-375.1
-41.7325
1024.78
311.082
1181.42
-170.921
250.539
878.852
977.965
740.719
532.976
540.156
720.8
872.943
998.949
677.591
560.445
1044.23
-12.8835
569.272
-118.303
-70.5649
1154.87
-111.72
-427.889
1015.9
1130.73
1057.27
883.63
1154.17
995.978
1089.87
1250.22
1170.01
1221.78
662.31
371.191
811.136
229.806
1302.02
442.911
814.337
996.4
572.239
724.63
654.125
-56.6774
-86.7983
277.895
249.017
39.0724
30.1808
77.6667
-37.1121
-73.5707
-33.4582
-15.2361
11.966
394.961
111.296
817.424
264.591
531.783
-258.709
17.9465
-15.0888
45.1823
35.2998
-72.9227
900.086
312.771
1052.38
1497.84
12.8139
1328.67
245.356
-79.0167
1237.25
-24.3838
1043.04
1343.26
-1467.13
56.2634
13.7389
174.292
-0.53053
564.563
69.595
3.58084
432.615
21.7243
781.107
884.873
-14.2485
200.629
776.429
-50.9969
-5.31709
51.0212
525.991
613.899
-0.742274
38.318
1063.22
-95.5825
1143.31
62.0763
6.67709
-17.147
-8.76365
888.158
678.389
-733.032
1158.62
-264.11
773.883
1160.32
776.253
-549.757
-1469.56
1170.14
1182.8
-697.777
-1143.61
1547.61
1231.73
88.632
862.392
1064.72
127.902
-6.09023
23.3859
36.8899
88.1613
111.391
10.0488
-8.89837
-73.7525
-9.36079
-20.9672
-7.89528
333.16
456.429
-573.619
66.5684
-1453.72
-58.7296
-150.473
9.18542
-20.9385
-271.101
1028.46
-1464.07
-63.993
-212.136
-133.302
SCALARS SXY_NODAL_SOLUTION FLOAT
LOOKUP_TABLE default
-138.838
184.235
159.69
-227.438
299.665
1274.73
1604.74
2004.23
1793.32
1759.24
1030.32
1620.64
1037.82
923.247
2220.22
1279.38
998.823
1102.01
396.682
2740.45
423.376
-370.241
-92.451
-239.462
237.651
44.4021
490.693
5160.87
-96.6036
-29.0943
31.5269
22.7573
-8.8299
16.5142
6.28562
6.46667
-9.03768
435.337
115.427
-55.6425
-93.4626
39.4389
321.493
709.402
854.408
776.234
640.082
713.861
1255.29
466.59
384.265
518.624
92.1213
275.87
2345.39
621.379
655.297
678.619
708.544
750.43
793.422
849.926
966.334
1714.65
-153.223
-40.7872
-11.5829
10.3243
25.8398
44.9456
22.1943
8.57913
-5.87928
-4.02067
-12.2562
-23.6122
-39.3144
-97.2725
-90.3915
52.5769
-121.726
83.3275
125.332
108.143
62.3817
30.7251
44.1409
-46.6196
19.3233
-19.1906
-34.9739
-9.46571
-36.0647
-126.138
-135.018
-41.6988
-11.7758
12.3699
52.3451
34.9557
308.617
203.439
95.2886
145.163
-247.395
-194.58
-146.057
-80.6203
-0.275369
88.761
178.226
264.604
381.174
-84.8466
122.964
356.303
601.226
1041.68
290.74
340.317
578.73
481.973
-13.4361
-119.052
121.543
515.508
1191.29
1383.97
793.997
752.401
651.425
40.6089
786.864
172.308
1250.75
-180.01
-478.581
-32.7192
1050.4
255.436
1208.89
-180.864
216.258
845.735
1241.5
966.133
295.663
452.642
695.779
895.036
1200.6
635.715
442.299
1239.21
-8.76609
648.829
-127.138
-90.1139
928.743
-137.624
-311.883
816.058
1100.75
911.092
638.341
1126.87
777.814
1042.67
1278.26
1312.54
1186.51
559.164
127.795
794.529
44.8234
1682.14
270.845
756.56
1051.61
413.005
758.07
644.044
-79.4574
-82.8552
271.921
240.171
39.4978
-7.2443
104.559
-63.1857
-86.0621
-35.1765
-13.6382
11.3192
373.525
106.004
813.713
335.718
561.772
-226.938
15.8077
-14.1677
44.1055
43.6222
-78.3154
355.43
326.59
1063.97
1085.76
1.09951
1451.93
256.066
-60.021
1206.63
-44.4436
1092.44
1398.6
-1803.08
50.6676
6.03374
183.839
-0.536701
550.164
75.883
3.07471
424.903
18.9959
741.944
725.164
-96.0039
248.827
797.023
-33.4543
-19.2913
33.8471
490.077
584.01
-0.562738
38.2722
1085.91
-103.709
1078.44
71.9983
-24.3391
10.3061
-16.6028
912.937
689.538
-650.068
1134.13
-65.7556
799.158
1137.51
753.61
-542.896
-1539.84
1151.61
1162.93
-550.4
-1262.23
1779.61
1485.16
341.423
768.982
1336
63.8326
-8.50528
38.134
66.949
77.2934
150.446
-2.99119
-17.231
-96.8728
35.8657
-14.6236
-26.4601
341.835
570.501
-502.971
125.833
-1528.39
-103.781
-192.956
-12.3095
14.4492
-150.264
889.719
-1448.78
-77.4563
-336.399
-224.483
SCALARS S1_INTEGRATION_POINTS_SOLUTION FLOAT
LOOKUP_TABLE default
1172.83
912.582
924.61
1194.5
5021.21
2534.59
975.284
3321.39
4133.47
4769.24
2079.63
491.028
3.97728
1527.58
4944.08
7095.87
-1320.92
4518.11
-62.6253
-2301.02
15.6075
507.374
987.581
1351.24
1352.57
70.7239
2308.35
15461.8
-220.842
1408.1
1512.77
1532.51
1558.98
1513.8
1491.44
1497.33
1543.53
-1001.72
-684.539
-304.668
276.62
1415.55
2374.01
2219.19
1279
649.523
796.678
2194.97
263.531
573.485
148.16
-43.6404
-113.241
-279.576
286.863
-112.77
-193.092
-244.2
-296.597
-351.4
-407.495
-469.859
-673.701
-1547.07
1106.14
1020.02
924.331
925.131
1018.88
1152.3
1208.54
1189.44
1159.65
1166.6
1197.09
1285.74
1223.45
1134.97
633.74
674.224
749.109
191.6
439.569
729.763
938.677
1058.7
1154.59
1276.88
1226.39
1214.81
1165.09
1176.63
1191.59
1197.74
1063.31
995.727
920.034
926.419
949.224
1242.78
1392.01
639.445
222.717
14920.3
12707.4
11618.8
10523.6
9388.58
8250.69
7111.28
5954.34
4736.87
3407.71
131.497
539.162
353.429
2739.18
5961.03
3874.61
3048.77
754.28
797.484
289.616
32.5699
878.268
1582
2348.06
2693.29
3385.99
584.122
578.001
4443.77
1878.67
3423.61
2612.72
-218.066
561.529
1306.61
1362.62
1915.91
2163.9
-98.6566
2611.41
1813.1
8617.83
8477.65
6808.28
6493.62
5503.3
4568.3
3912.21
3473.05
3104.99
8271.99
814.768
993.84
200.739
1818.7
1735.03
982.303
5877.53
2088.17
2383.04
1942.14
2915.62
3413.24
2209.26
2143.17
2364.92
3330.12
1422.59
257.166
362.517
60.8939
537.978
12.5048
289.54
284.98
294.617
-198.372
270.922
1125.23
753.328
867.633
569.541
780.536
883.898
998.461
1046.59
1329.53
842.376
843.237
881.456
891.249
682.901
847.154
1857.71
96.5542
410.357
410.979
891.54
889.766
888.956
765.623
804.678
3480.61
943.377
1025.6
605.361
725.47
7511.68
2745.01
426.301
1231.99
112.197
1234.78
1082.36
4010.84
-393.717
765.114
364.996
851.267
805.114
834.243
840.69
865.061
793.226
795.885
2074.61
630.327
219.579
1063.05
862.311
1307.05
859.967
3627.96
894.263
750.734
835.28
864.217
1849.21
927.123
20.3863
814.879
581.894
1323.11
1100.28
999.319
5487.08
811.416
633.196
2808.85
773.453
2178.45
2942.89
1742.28
754.856
745.613
868.053
545.612
653.134
568.283
901.623
552.412
8982
-247.636
1340.18
1353.88
1375.77
931.42
1159.51
1314.61
1324.64
1177.33
1106.7
1244.79
1301.16
908.51
3736.74
840.853
2621.51
3541.51
1220.63
734.924
-5.04257
1184.8
798.464
2144.68
4020.34
417.557
400.636
358.887
SCALARS S1_NODAL_SOLUTION FLOAT
LOOKUP_TABLE default
1167.4
841.004
891.864
1197.2
5290.02
2262.93
397.402
3699.41
4724
5759.05
1942.12
357.8
-283.719
1204.84
5619.77
8024.61
-1731.32
5340.7
-175.132
-3307.25
-242.819
404.042
1056.62
1518.11
1522.15
66.8258
2495.07
18216.6
-522.415
1426.59
1556.73
1576.74
1616.38
1574.71
1535.45
1541.48
1614.25
-1263.72
-844.617
-426.434
90.6473
1399.34
2557.37
2329.58
1167.82
389.246
565.162
2093.54
223.257
769.923
99.794
-171.641
-237.945
-262.959
442.079
-235.475
-384.03
-461.251
-550.337
-644.119
-744.402
-837.185
-1125.23
-2074.4
1180.68
1063
935.241
935.509
1056.23
1198.69
1219.18
1161.6
1107.75
1117.54
1170.1
1306.37
1266.74
1203.71
593.47
662.035
642.485
188.501
423.674
736.106
966.992
1108.47
1210.64
1294.89
1217.41
1190.4
1118.25
1112.13
1154.86
1200.97
1132.86
1039.05
931.373
938.888
969.658
1382.63
1538.69
669.129
228.553
16439.8
13949.4
12769.1
11584.7
10331.1
9064.58
7791.57
6498.22
5138.32
3654.48
76.1912
534.633
48.0608
2694
6168
4357.79
3306.7
161.576
676.284
144.544
-75.3308
854.841
1681.61
1824.8
2821.92
3275.13
621.642
589.233
4783.88
1391.87
3413.09
2643.12
-127.072
646.57
1171.65
1234.86
2006.88
2218.9
-107.719
2619.44
1849.07
8136.5
7329.62
7070.47
6194.88
5464.74
4785.14
3926.74
3434.56
3112.16
8611.29
797.358
1000
229.588
1878.99
1316.21
877.206
5984.02
2545.17
2254.69
1983.84
2884.05
3141.25
2743.45
2059.64
2475.2
3617.13
1430.96
201.444
546.346
127.434
897.442
-127.996
399.162
277.742
235.606
158.633
346.425
1170.02
762.72
790.994
560.672
751.609
883.468
1034.19
1048.47
1327.48
819.269
838.811
879.459
885.336
697.547
822.615
2051.42
-54.4329
348.936
494.959
893.312
889.388
903.504
737.804
733.817
1516.97
957.225
1004.79
773.928
689.991
8057.76
2781.34
396.238
1131.63
149.07
1266.73
936.215
4353.19
-622.55
784.013
387.333
837.721
760.426
829.922
825.271
848.541
771.78
830.143
1924.59
733.179
116.45
1083.88
836.231
1313.19
833.737
3441.02
804.626
722.088
839.937
901.028
1697.1
767.442
7.34655
806.274
535.445
1339.71
1121.66
985.191
5714.75
732.361
275.281
2741.92
681.517
2017.39
3046.59
1923.22
647.285
610.316
423.733
768.315
279.952
-99.6534
539.954
618.335
9437.66
-96.2869
1339.66
1365.84
1362.48
972.232
1166.67
1296.23
1342.75
1231.9
1105.06
1252.56
1328.83
859.978
4050.35
851.38
2597.05
3829.58
1211.73
810.769
0.913285
1226.2
765.391
2080.44
3772.85
352.834
522.372
471.22
SCALARS S2_INTEGRATION_POINTS_SOLUTION FLOAT
LOOKUP_TABLE default
-90.441
-119.446
-189.125
-124.027
-656.394
-3109.21
-3093.5
-671.356
860.174
323.768
-968.428
-2551.25
-2140.56
-458.902
480.72
867.19
-5927.48
897.284
-919.985
-12796.4
-2730.36
-1937.09
-286.821
-91.2972
-89.1211
-9.92831
-37.5697
3229.61
-608.045
29.5722
22.271
28.1235
31.5276
35.7734
16.8004
15.9768
46.8444
-4276.67
-2689.41
-1269.3
-131.113
312.653
469.695
96.9598
-617.783
-1112.38
-286.976
275.742
-2769.45
-3040.47
-4503.56
-4982.56
-5315.78
-5428.55
-3895.76
-4614.96
-5767.13
-6927.73
-8097.78
-9276.76
-10464.6
-11650.9
-12958.7
-14994.3
48.2443
44.0267
21.2967
19.6664
34.5652
2.17404
-28.6321
5.45508
-24.4
-22.8003
1.92692
-14.1008
-0.069593
29.1912
-281.489
-266.361
-278.303
-3.00772
-38.8742
-50.522
-27.6755
18.3598
26.973
-45.5217
-14.6216
-7.41354
-24.9525
-38.0903
8.69718
-77.0851
45.0196
46.0198
22.7866
23.1819
24.9743
72.3221
61.2984
2.52223
2.60737
885.26
640.297
548.889
516.536
452.717
375.042
294.545
209.362
123.89
-5.20345
-668.405
-790.731
-758.33
-503.297
-143.61
148.262
-240.097
-910.128
-937.585
-1273.21
-828.8
-891.501
52.9404
-456
-1163.11
-29.0051
-920.502
-954.141
-1530.92
-1209.5
537.885
-190.392
-2733.21
-297.912
-28.7755
-784.396
-86.031
-361.597
-1344.67
76.6922
-439.829
-608.224
-746.049
237.845
-91.4026
-151.529
-178.289
-480.782
-181.651
-104.501
68.751
-54.2742
-1089.7
-344.794
379.032
-637.457
119.987
1030.83
-195.836
-598.658
-443.136
-88.6046
-512.65
-107.351
-575.688
-690.269
-493.588
-1067.41
-2512.2
-7894.73
-8292.66
-7595.91
-6119
-5611.34
-3955.36
-2886.55
-7873.92
-4823.9
-259.102
9.11683
-3.16286
-130.389
-192.682
3.49035
28.839
-36.1608
-41.6016
31.5361
39.294
37.1227
25.2133
-133.117
-143.718
-987.5
-3817.63
-3866.4
-117.993
35.9076
31.7779
47.8234
36.3056
-0.349913
-531.365
-668.456
-1384.4
-3522.86
46.6274
1652.6
419.861
-135.73
-1387.32
-1534.7
-1017.51
-1660.66
870.757
-7015.48
14.2638
-24.541
42.5222
-379.115
-231.421
39.5719
-402.066
48.1284
-3915.43
-608.444
-2053.53
-2587.24
-595.689
39.0506
9.87115
39.6847
-1470.68
-4118.87
51.4887
-40.4751
-1725.24
-341.045
-1857.66
-4214.09
-417.69
-1249.16
1.84439
-1084.41
-720.911
-717.358
-2182.85
-3293.91
5.75487
-2441.52
-329.566
-685.749
-1735.31
-2688.02
-2921.95
-863.111
-2932.16
-3072.39
-2360.27
-1996.27
-6208.96
1579.9
-4202.31
-8.48981
21.199
24.1413
6.11161
-79.9156
11.2241
4.2246
-58.9814
18.6445
3.65422
14.1176
-1173.54
-675.11
-4189.15
-458.856
-825.632
279.99
109.579
-2708.18
131.282
-0.385916
-444.998
-176.922
-627.017
-355.893
-1474.49
SCALARS S2_NODAL_SOLUTION FLOAT
LOOKUP_TABLE default
-124.39
-165.149
-262.878
-181.836
-551.166
-3639.92
-3626.74
-530.945
1211.11
561.014
-944.696
-2992.14
-2684.39
-597.223
652.154
1238.32
-6544.61
1264.97
-933.262
-15069.7
-3069.96
-2247.9
-243.489
-87.6635
-84.6368
-21.1068
29.3353
4659.59
-663.641
42.1022
43.5358
61.3409
66.6753
56.6731
30.7396
27.1385
77.2628
-4321.33
-2732.65
-1263.92
19.2058
437.748
700.678
342.149
-530.584
-1190.92
-562.274
344.17
-2445.59
-2625.1
-4634.96
-5271.65
-5637.92
-5740.28
-3976.69
-5074.33
-6341.56
-7606.56
-8891.64
-10192.5
-11509
-12818.4
-14327.2
-16869
64.9871
59.8748
25.3997
23.465
56.9409
16.1354
-39.4579
8.11547
-42.7887
-39.3532
-1.72832
-9.34592
19.3314
62.0058
-375.545
-347.231
-399.029
8.60951
-29.6569
-51.2516
-27.7069
36.058
46.6979
-47.5037
-25.6686
-18.3262
-49.0142
-76.722
9.93956
-101.563
59.6565
62.7239
25.6564
27.7797
29.8773
142.993
191.788
44.9053
17.4228
977.108
1211.67
1018.43
977.374
866.703
733.869
591.546
439.177
288.459
76.9766
-812.294
-951.28
-854.77
-398.129
-691.847
205.619
-171.248
-1051.67
-1198.48
-1687.79
-1070.92
-962.542
71.67
-611.088
-1185.9
-60.0495
-836.54
-723.981
-1578.69
-1067.54
549.007
-181.676
-2571.64
-315.646
-123.031
-910.384
-58.4273
-447.099
-1331.08
66.8064
-322.723
-854.947
-1223.49
633.086
-40.0449
-78.5537
-100.669
-635.945
-119.041
19.3659
-70.2881
-58.5757
-1147.98
-208.828
444.858
-498.976
125.366
1187.84
600.134
-451.691
-125.256
629.244
-308.552
780.163
-466.866
-512.85
-430.155
-975.741
-2534.94
-7420.2
-8242.87
-6541.51
-6336.38
-5295.52
-4132.27
-3013.58
-7321.93
-4666.75
-185.171
49.6283
-3.21506
-120.186
-200.821
-1.24624
54.5496
-51.4719
-77.9267
22.3777
36.4505
33.3992
24.1965
-75.6531
-169.967
-1050.04
-4141.07
-4014.84
241.902
34.6285
29.8362
56.3892
24.9806
6.4792
-1130.02
-633.862
-1415.67
-2307.84
59.0674
1728.38
319.745
-188.52
-1395.42
-1393.7
-1067.17
-1839.35
1172.09
-6386.42
59.6147
-11.2042
34.0707
-385.249
-216.595
27.7454
-403.984
45.6482
-3829.6
-398.666
-1926.72
-2660.17
-592.561
36.2725
13.6168
37.6789
-1359.97
-4215.47
45.0207
9.88467
-1790.62
-358.902
-1880.96
-4218.45
-473.784
-1226.16
4.6023
-1103.63
-760.257
-870.862
-2102.36
-3546.77
-29.4471
-2351.93
-465.725
-613.401
-1351.32
-2587.21
-2802.14
-728.423
-2159.49
-3427.59
-3315.89
-3053.46
-6612.38
1692.27
-4109.6
-12.7647
35.2464
55.9857
28.8469
-101.425
16.1923
5.33833
-78.7464
66.3096
7.99655
29.2772
-1231.98
-617.178
-4307.6
-470.671
-593.822
199.424
101.314
-2783.31
105.03
442.939
-114.248
-291.366
-670.65
-258.932
-1455.35
SCALARS Von_Mises_Stress_INTEGRATION_POINTS_SOLUTION FLOAT
LOOKUP_TABLE default
1224.28
977.816
1048.52
1271.52
5499.99
5046.4
3688.23
3845.06
3841.43
4644.61
2906.03
2868.69
2183.34
1801.42
4734.36
6707.87
5389.82
4143
890.326
11855.7
2738.42
2279.07
1182.06
1399.13
1399.27
76.1749
2330.89
14146.3
533.111
1393.65
1502.52
1519.01
1543.8
1496.37
1483.13
1489.41
1520.67
3874.79
2421.04
1147.71
394.127
1288.33
2178.32
2173.67
1680.77
1543.31
972.46
2071.36
2910.18
3380.44
4579.94
4960.89
5260.42
5296.57
4049.4
4560.44
5674.05
6810.22
7955.14
9108
10269.2
11425.5
12637.3
14285.3
1082.82
998.856
913.88
915.465
1002.1
1151.34
1223.12
1186.73
1172.05
1178.2
1196.23
1292.84
1223.51
1121.32
811.944
839.71
920.932
193.222
462.191
757.558
953.054
1049.67
1141.34
1300.24
1233.77
1219.09
1178.25
1196.19
1187.27
1238.14
1041.53
973.59
908.868
915.058
936.986
1208.35
1366.06
640.147
221.523
14531.1
12412.6
11368.9
10289
9183.73
8080.91
6977.25
5858.12
4679.34
3413.39
747.078
1173.21
983.866
3049.57
6098.34
3809.13
3185.98
1443.52
1579.21
1440.91
854.488
1534.74
1607.41
2616.48
3467.53
3425.04
1330.65
1346.44
5382.81
2775.01
3219.37
2714.2
2633.06
760.725
1323.9
1882.96
1977.33
2379.47
1302.83
2575.45
2088.15
8951.88
8898.65
6715.51
6586.02
5609.28
4687.32
4173.82
3574.64
3158.59
8353.46
843.924
1805.05
486.229
1674.03
2139.56
950.343
5450.37
2292.05
2762.16
2197.96
3066.08
3839.23
2399.82
2488.08
2835.89
3766.15
2171.74
2655.58
8089.65
8339.59
7882.99
6127.2
5765.37
4106.64
3047.64
7824.67
4967.69
1275.32
749.539
870.613
647.48
898.615
882.487
985.038
1065.27
1351.11
827.972
824.586
863.624
879.051
758.398
930.178
2516.61
3866.85
4088.48
527.182
874.285
874.485
866.447
748.6
807.912
3827.51
1404.27
2094.82
3928.42
704.508
6856.38
2567.88
543.538
2275.93
1599.72
1960.17
2396.26
3725.45
6872.97
759.553
377.925
830.823
1048.2
971.617
821.621
1125.98
770.335
4374.94
2445.71
2431.82
2705.57
1457.56
844.063
1302.31
841.459
4656.71
4634.4
726.36
856.288
2293.83
2049.93
2458.17
4226.04
1086.08
1636.31
1322.35
1895.55
1500.64
5880.6
2684.3
3658.03
2816.74
2908.21
2361.33
3359.65
3049.61
3136.28
3359.73
1528.65
3426.65
3447.33
2689.93
2630.28
6530.54
8366.5
4088.84
1345.48
1343.79
1365.09
929.59
1203.27
1309.35
1322.64
1208.84
1099.67
1243.61
1295
1810.8
4118.36
4701.27
2878.5
4028.41
1126.55
692.024
2709.76
1146.15
809.812
2412.88
4135.55
950.802
658.338
1690.36
SCALARS Von_Mises_Stress_NODAL_SOLUTION FLOAT
LOOKUP_TABLE default
1239.68
931.568
1069.52
1314.53
5712.22
5318.31
3668.13
4114.78
4318.45
5511.52
2836.64
3169.77
2574.29
1552.49
5331.3
7471.55
5854.37
4826.75
839.975
13757.1
2928.2
2486.37
1214.19
1551.07
1552.95
78.4792
2471.95
16360.6
467.169
1405.32
1535.71
1547.18
1584.12
1547.1
1520.17
1527.89
1576.64
3818.95
2408.61
1096.65
20.0383
1223.23
2271.47
2139.74
1468.86
1393.16
905.157
1917.43
2526.87
3100.08
4684.09
5185.53
5520.65
5598.63
4152.04
4952.51
6149.8
7377.07
8618.37
9873.26
11140.8
12403.2
13774.7
15844.4
1148.93
1034.37
922.805
924.002
1028.74
1190.16
1238.93
1157.31
1129.41
1137.51
1171.03
1311.02
1256.95
1174.46
834.614
877.111
893.948
182.408
441.992
764.534
981.141
1090.63
1187.64
1319.13
1230.04
1199.91
1143.57
1151.48
1149.58
1252.05
1103.7
1009.03
918.81
925.306
955.016
1314.88
1448.08
648.849
218.793
15955.6
13365.3
12275.4
11114.3
9915.66
8713.76
7509.28
6288.03
4999.27
3616.02
808.806
1281.79
823.731
2949.04
6511.12
4245.15
3405.91
1032.26
1664.79
1666.38
960.284
1565.72
1596.83
2166.15
3579.04
3330.9
1225.31
1080
5730.04
2065.94
3216.36
2735.41
2497.13
790.011
1230.43
1840.73
2019.96
2450.04
1267.15
2579.76
2026.32
8531.06
8000.99
6734.93
6291.62
5522.53
4865.98
4251.96
3498.94
3093.2
8788.87
824.579
1854.21
330.266
1703.13
1575.03
847.5
5443.33
2109.58
2476.85
2011.68
2417.65
3350.67
2226.94
2303.72
2773.8
3912.41
2082.83
2633.15
7690.8
8298.1
7012.99
6261.41
5493.85
4265.75
3123.73
7430.38
4844.18
1260.94
732.911
789.591
630.916
876.133
883.969
1008.77
1074.34
1367.45
809.601
821.457
863.339
873.647
733.121
920.964
2677.23
4104.92
4193.77
296.696
876.618
874.963
877.266
726.292
728.434
2176.12
1383.49
2105.92
2885.21
662.614
7272.39
2632.02
567.48
2143.32
1477.06
2023.23
2368
3920.48
6046.58
748.985
391.552
821.116
1005.88
952.17
811.619
1111.68
749.857
4305.66
2091.69
2371.24
2705.5
1471.26
819.319
1306.67
816.163
4272.54
4675.13
700.579
831.219
2367.62
1917.17
2240.19
4220.6
1113.02
1560.43
1337.58
1929.07
1519.48
6155.07
2423.43
3667.73
2772.3
2605.81
2271.97
3399.51
2764.83
2785.9
2949.55
945.345
2825.99
3252.61
2773.22
3155.14
6922.82
8778.24
4061.53
1347.31
1347.98
1337.07
960.121
1215.36
1288.39
1340.17
1266.22
1076.19
1248.9
1314.14
1821
4394.34
4792.42
2852.27
4103.06
1140.68
762.739
2785.66
1179.95
414.292
2063.71
3834.08
919.658
631.988
1722.97
SCALARS StrainX FLOAT
LOOKUP_TABLE default
2.93348e-05
1.92697e-05
5.20871e-05
2.82326e-05
-5.20429e-05
-0.000108389
-0.000110036
1.01356e-05
6.38008e-05
-1.53293e-05
-2.15249e-05
-4.29196e-05
-6.22539e-05
4.04763e-06
2.35671e-06
-1.64881e-05
1.02227e-05
-7.70675e-06
-7.61593e-06
5.95731e-05
9.52189e-06
3.12708e-05
3.59441e-05
4.4829e-05
4.48658e-05
7.12457e-07
-2.1139e-05
-3.93988e-05
-9.27644e-06
5.01042e-05
5.03125e-05
5.02237e-05
5.1079e-05
4.93373e-05
4.96917e-05
4.96869e-05
5.21671e-05
5.21274e-06
2.54334e-06
2.68969e-06
-2.01062e-06
-1.88748e-06
-6.29703e-06
-7.25399e-06
1.35917e-06
1.3051e-06
-1.51964e-06
-7.54801e-06
1.13081e-05
4.83796e-05
4.40368e-05
4.6971e-05
5.1473e-05
4.97471e-05
-5.22244e-05
2.84781e-05
5.87597e-05
6.9784e-05
5.47205e-05
6.35167e-05
0.000102633
8.14019e-05
0.000119178
9.28704e-05
3.57087e-05
3.11936e-05
3.11895e-05
3.12819e-05
3.58393e-05
3.57598e-05
4.04343e-05
3.86221e-05
3.90604e-05
3.90782e-05
4.05721e-05
4.29929e-05
3.83642e-05
3.87776e-05
2.37969e-05
2.51022e-05
2.3794e-05
7.03876e-06
7.04765e-06
2.88124e-05
3.37036e-05
3.36775e-05
3.99344e-05
4.29728e-05
4.28036e-05
3.90516e-05
3.93519e-05
4.03016e-05
3.96113e-05
4.06175e-05
3.44436e-05
3.08958e-05
3.08796e-05
3.12974e-05
3.12925e-05
3.58332e-05
-8.3064e-06
-9.70277e-07
5.94432e-07
-9.83283e-05
-0.000118688
-0.00011106
-9.95336e-05
-8.87181e-05
-7.75282e-05
-6.58139e-05
-5.34802e-05
-4.00437e-05
-3.50793e-05
-9.36239e-06
-1.83126e-05
-1.79596e-05
0.000121838
0.000121554
-2.78502e-05
-3.35054e-05
-1.44035e-05
6.87483e-06
1.12332e-05
7.44497e-06
3.33597e-05
3.80565e-05
-1.55667e-05
0.000115188
-4.06095e-05
1.82431e-06
-7.42539e-06
-8.15957e-05
-6.14561e-05
9.71051e-06
1.08471e-05
2.59714e-05
-7.46025e-06
-1.72121e-05
-9.25011e-06
-2.72944e-05
9.63282e-06
1.0407e-05
-2.12667e-05
3.92293e-06
-0.000127428
-0.000120041
-5.58846e-05
-2.58045e-05
-4.41982e-05
-2.27542e-05
-3.27592e-05
-2.2709e-05
-2.18183e-05
-6.08539e-06
2.91257e-05
3.88631e-05
9.68219e-06
5.20747e-07
3.85302e-05
3.54174e-06
-5.06403e-06
1.23344e-05
7.33255e-06
-1.58181e-08
1.44147e-05
1.70193e-05
1.40159e-05
9.48326e-07
1.0366e-05
2.43341e-05
-6.31923e-06
1.33192e-05
6.14327e-05
5.40201e-05
0.000106894
2.27548e-05
5.80902e-05
3.15991e-05
1.75949e-06
3.42505e-05
7.32868e-05
5.35342e-06
2.44793e-05
2.67252e-05
1.892e-05
2.69321e-05
3.04098e-05
3.00508e-05
4.12001e-05
4.68342e-05
2.59849e-05
2.59075e-05
2.91716e-05
2.96369e-05
-1.07498e-06
2.68478e-05
-4.94479e-05
3.76055e-05
5.22857e-05
7.27433e-06
2.88837e-05
2.97005e-05
2.8808e-05
2.52012e-05
2.61526e-05
0.000113996
3.33331e-05
2.12488e-05
4.6932e-05
2.23722e-05
-3.63061e-05
-1.0049e-05
1.29184e-05
-3.50717e-06
8.2183e-06
2.38782e-05
-6.33695e-07
4.08841e-05
3.57857e-05
2.65774e-05
5.2282e-07
2.73632e-05
2.02087e-05
3.33627e-05
2.7611e-05
2.02691e-05
2.75094e-05
4.91561e-05
-2.14095e-05
2.7539e-05
3.18345e-05
2.16078e-05
2.67023e-05
4.13373e-05
2.66004e-05
-7.68916e-05
6.89648e-05
2.44495e-05
2.80863e-05
2.20967e-05
-3.4589e-05
2.23694e-06
3.59265e-05
3.33943e-05
1.3335e-05
4.3051e-05
2.31706e-05
2.17599e-05
-7.70634e-05
4.81673e-06
3.32675e-05
-1.74936e-05
6.41848e-06
-7.30784e-06
-3.33005e-05
3.88373e-05
7.54003e-06
7.86216e-06
-3.74097e-06
3.52689e-05
9.94124e-06
1.74766e-05
-1.70431e-05
7.85609e-05
5.29203e-05
2.46882e-05
4.70313e-05
4.66313e-05
4.36454e-05
3.24889e-05
4.40065e-05
4.43043e-05
4.31015e-05
3.70623e-05
3.49468e-05
4.03104e-05
4.12431e-05
4.05519e-05
-4.89812e-05
3.91604e-05
-4.39828e-05
-1.61216e-05
1.89209e-05
1.50451e-05
1.93784e-05
-4.48569e-06
1.62105e-06
4.09699e-06
-1.29988e-05
9.03662e-06
1.89836e-05
1.53848e-05
SCALARS StrainY FLOAT
LOOKUP_TABLE default
-1.33937e-05
-6.88631e-06
-1.44867e-05
-1.50468e-05
0.000223159
0.000141723
3.21576e-05
-1.10972e-06
6.74981e-05
0.000102792
0.000102047
-2.31839e-05
-1.03943e-05
2.08883e-05
7.86428e-05
0.000205657
-0.000179352
0.000134066
-1.53117e-05
-0.000234099
-5.47267e-05
-9.22729e-05
-1.05947e-05
-1.54302e-05
-1.53852e-05
7.06106e-07
8.76639e-05
0.000540886
-1.00643e-05
-1.46453e-05
-1.60808e-05
-1.30161e-05
-1.54885e-05
-1.44193e-05
-1.46414e-05
-1.43206e-05
-1.39384e-05
-0.000119506
-7.31439e-05
-4.75519e-05
1.32302e-05
3.58568e-05
7.30076e-05
6.57339e-05
7.31194e-06
-1.21052e-05
1.34127e-05
7.82825e-05
-6.97795e-05
-0.000134425
-0.000134434
-0.000164249
-0.000176447
-0.000176411
-8.81321e-05
-0.000129949
-0.000206022
-0.000244326
-0.000244198
-0.000282842
-0.000360605
-0.000360749
-0.000443029
-0.000508802
-8.77314e-06
-8.57945e-06
-8.51681e-06
-8.61676e-06
-9.23474e-06
-1.1013e-05
-1.28579e-05
-1.15337e-05
-1.23007e-05
-1.20292e-05
-1.1543e-05
-1.33214e-05
-1.10387e-05
-1.20129e-05
-1.55777e-05
-1.55854e-05
-1.55476e-05
1.17906e-08
-2.58417e-06
-8.65804e-06
-1.02445e-05
-9.73211e-06
-1.10975e-05
-1.4241e-05
-1.3482e-05
-1.05358e-05
-1.37039e-05
-1.28095e-05
-1.16046e-05
-1.36828e-05
-8.58256e-06
-8.25122e-06
-8.37458e-06
-8.50167e-06
-8.56118e-06
-8.8473e-06
5.51722e-05
7.8666e-06
7.86616e-06
0.000541894
0.000397513
0.000362144
0.000325297
0.000288235
0.000251271
0.000214082
0.000175718
0.0001338
0.000134362
2.78674e-06
2.035e-05
8.51187e-06
-4.05082e-05
-6.67437e-05
0.000134732
8.13763e-05
1.0767e-05
1.07967e-05
-3.51601e-05
-3.505e-05
-2.99554e-05
3.41774e-05
5.93023e-05
-4.11112e-05
0.00010079
-2.04674e-05
-7.37426e-06
0.000158343
8.00596e-05
6.59868e-05
5.08286e-05
-0.000102673
1.79725e-05
4.64883e-05
2.37522e-05
8.06683e-05
5.9372e-05
-4.40792e-05
8.10312e-05
2.51665e-05
0.000299159
0.000271093
0.000183866
0.000182993
0.000146069
0.000144016
0.000109838
0.00010845
8.73852e-05
0.000215423
-1.06666e-05
-4.1411e-05
-2.00167e-05
5.67942e-05
-5.07568e-06
7.70769e-06
0.000179634
4.5304e-05
3.84963e-05
3.50263e-05
5.85741e-05
6.16418e-05
5.11693e-05
3.67742e-05
4.11457e-05
5.63887e-05
1.2881e-05
-5.63399e-05
-0.00022342
-0.000228974
-0.000270147
-0.000161191
-0.000184843
-0.000116381
-5.16284e-05
-0.000165427
-0.000185329
2.27146e-05
-5.70548e-06
-5.70547e-06
-4.97545e-06
-1.24005e-05
-9.75812e-06
-6.87178e-06
-1.42898e-05
-1.63067e-05
-5.49443e-06
-5.86451e-06
-7.28315e-06
-8.50352e-06
7.1382e-06
-1.3671e-05
5.77009e-05
-0.000123915
-0.000126455
3.77423e-06
-7.13094e-06
-8.51627e-06
-6.48532e-06
-5.49114e-06
-9.63121e-06
-6.91155e-05
-2.3653e-05
-2.96209e-05
-7.73805e-05
-6.86845e-06
0.000216806
6.75634e-05
-3.16493e-07
3.26937e-07
-4.05058e-05
-2.89633e-05
-9.84314e-06
0.000101624
-0.000139513
-5.68355e-06
7.13649e-06
-6.94919e-06
-5.83314e-06
-1.92429e-05
-7.12959e-06
-1.44367e-05
-6.48651e-06
-0.000133107
5.89391e-05
-4.51298e-05
-8.67519e-05
-5.92567e-06
-5.71191e-06
-1.1467e-05
-5.64411e-06
0.000207006
-0.000151187
-5.71193e-06
-9.94493e-06
-2.83056e-05
9.98114e-05
-1.89607e-05
-0.000132599
-2.45832e-05
-8.9808e-06
-1.20211e-05
-3.03951e-05
-1.5246e-05
0.000178442
-2.62035e-05
-9.47059e-05
9.10174e-05
-3.17869e-05
5.01179e-05
9.80246e-05
-6.92703e-05
-3.61369e-05
-3.95598e-05
1.871e-05
-5.95516e-05
-4.19969e-05
-3.41565e-05
-3.57844e-05
-0.000237113
0.000192092
-0.000132489
-1.72334e-05
-1.39592e-05
-1.03409e-05
-8.2835e-06
-1.44789e-05
-1.39313e-05
-1.22833e-05
-1.36751e-05
-6.61036e-06
-1.33842e-05
-9.58409e-06
-5.41483e-05
0.000100472
-0.000146177
9.91758e-05
9.53681e-05
-1.89637e-06
-3.1837e-06
-8.41829e-05
2.75982e-05
2.07983e-05
3.69548e-05
9.29606e-05
-1.54505e-06
-1.76773e-05
-4.18413e-05
SCALARS StrainXY FLOAT
LOOKUP_TABLE default
-1.42976e-05
1.28196e-05
1.12149e-05
-2.28188e-05
-1.31525e-06
-2.78925e-06
0.000188902
0.000168547
0.000194895
0.000146704
9.38489e-05
0.000114262
7.7866e-05
8.44177e-05
0.000131936
0.000128833
6.25198e-05
6.72228e-05
3.63465e-05
-3.05642e-05
6.05468e-05
-2.29341e-05
-1.47847e-06
-1.66236e-05
1.65153e-05
3.49492e-06
3.61509e-05
0.000324052
-1.67603e-05
-1.9607e-07
-8.85082e-07
4.27185e-06
3.21778e-06
-2.15053e-06
-2.57143e-06
3.40727e-06
-2.34293e-06
2.2153e-05
-1.44411e-06
-1.0458e-05
-1.22227e-05
-5.258e-06
3.71072e-05
5.66027e-05
7.93473e-05
7.51623e-05
4.45209e-05
4.82823e-05
0.000103433
5.25664e-05
5.39142e-05
3.45061e-05
-1.19337e-05
1.37991e-05
0.000311345
6.48302e-05
2.4241e-05
1.96005e-05
9.06519e-05
9.89924e-05
7.09038e-06
0.000116381
1.4046e-05
9.86308e-05
-1.1084e-05
-3.80165e-06
-2.26479e-06
2.1092e-06
2.84045e-06
8.15584e-06
-2.6619e-06
3.26384e-06
3.08105e-06
2.82484e-06
3.44447e-06
-1.15834e-06
-7.03616e-06
-3.91865e-06
-4.74929e-06
2.40463e-06
4.71075e-06
1.21075e-05
1.08143e-05
7.3199e-06
1.88496e-06
5.39709e-06
1.4338e-06
-3.21642e-06
-1.77802e-07
-3.1085e-06
-3.93231e-06
1.95297e-06
-2.09618e-06
-1.17095e-05
-9.79033e-06
-3.6537e-06
-2.23906e-06
2.32348e-06
3.96921e-06
1.11123e-05
3.10227e-05
1.4797e-05
1.40754e-05
4.65599e-05
6.92248e-05
6.67825e-05
6.5754e-05
6.29308e-05
6.08223e-05
5.85039e-05
5.60622e-05
5.3028e-05
2.01764e-05
-2.61568e-05
5.18782e-05
4.02519e-05
3.24832e-05
4.18544e-05
9.52421e-06
6.69706e-05
6.75897e-05
9.50766e-05
-4.2986e-05
-3.93611e-06
1.10287e-05
0.0001416
0.000139576
5.32182e-05
4.91836e-05
9.1743e-05
5.12918e-05
2.27057e-06
9.11705e-05
1.27221e-05
0.000113586
1.46033e-05
-2.97106e-05
1.96155e-06
6.34854e-05
-7.67625e-06
0.000139966
-3.46483e-05
9.53833e-06
9.22682e-05
0.000127883
0.000124106
0.000117587
2.01459e-05
0.000109635
3.87211e-05
0.000103671
5.8364e-05
7.43061e-05
-5.20308e-06
-2.22709e-06
4.11198e-05
-1.46867e-08
-5.90976e-06
0.000146588
2.88283e-07
-6.62689e-05
4.41701e-05
6.2321e-05
9.01395e-05
2.91765e-05
1.76962e-05
3.58297e-05
8.28463e-05
5.31531e-05
-3.614e-05
0.000114515
0.000103335
5.9748e-05
5.31926e-05
-3.24136e-05
0.000158356
6.21724e-05
8.13723e-05
0.000125215
-5.43475e-05
-9.43085e-06
7.25489e-05
-6.05141e-06
-6.0618e-06
3.49013e-05
2.2328e-05
4.74241e-06
3.98835e-06
-3.85131e-06
-5.13619e-06
-3.14643e-06
-2.35967e-06
-2.3668e-07
2.43481e-06
1.64228e-05
2.06433e-05
0.000105023
4.20236e-05
2.20458e-05
-5.94183e-06
2.13907e-06
-2.31206e-06
3.46592e-06
-2.76559e-06
-1.06722e-05
6.59661e-05
1.77193e-05
9.12064e-05
0.000123681
1.97975e-06
-5.37895e-05
7.70547e-06
9.08077e-07
0.000108341
1.18469e-05
8.83842e-05
0.000102805
-9.87284e-05
-0.000179128
5.85702e-06
1.56887e-05
-1.45807e-06
5.48137e-05
1.02248e-05
1.53898e-06
5.36775e-05
2.84817e-06
4.79934e-05
8.97705e-05
-4.81947e-06
5.38993e-06
6.28975e-05
-3.77108e-06
4.22995e-06
3.57397e-06
-1.1507e-05
2.245e-05
-3.7562e-06
2.95114e-06
8.87878e-05
3.93324e-05
9.65494e-05
1.18631e-07
2.27834e-06
-1.95245e-05
3.2824e-06
9.08595e-05
6.2168e-05
2.97858e-05
9.18219e-05
-5.60787e-05
2.54429e-05
8.68819e-05
8.22912e-05
-5.20636e-05
-9.57236e-05
8.33854e-05
7.98987e-05
-2.86816e-05
-0.000189782
7.18827e-05
1.40659e-05
0.00012563
1.95961e-05
-0.000172344
2.93836e-05
-4.77466e-06
5.55321e-07
2.99117e-06
4.30859e-06
1.13481e-05
-2.19982e-06
3.61224e-06
-1.58481e-05
2.46194e-07
-3.95548e-07
-6.18426e-06
2.80119e-05
4.50068e-05
-9.008e-05
3.1684e-05
-0.000155284
-4.4166e-06
-1.08123e-05
2.57442e-05
-2.15521e-05
-2.08246e-05
7.30376e-05
-1.86677e-06
-5.23863e-06
-2.41733e-05
-5.51001e-06
SCALARS Ux FLOAT
LOOKUP_TABLE default
0.0719795
0.0711984
0.063378
0.0625954
0.00126908
0.00218162
0.00267444
0.00267948
0.00251733
0.00200519
0.00127185
0.000570015
0.00027518
0.000202472
0.000279719
0.000549569
0
0
0.00339141
0.00364401
0.0490341
0.052333
0.0537583
0.0554092
0.0812371
0.0793625
0.0535824
0.00337724
0.00231038
0.0718214
0.0716683
0.0715141
0.071358
0.0627548
0.0629065
0.0630596
0.0632129
0
0
0
0
0
0
0
0
0
0
0
0.00292371
0.00222564
0.00149242
0.000910035
0.00049788
0.000243922
0.00342293
0.0428148
0.0368001
0.0310709
0.0256811
0.0206903
0.0161571
0.0121417
0.00869694
0.00587187
0.0552643
0.0551557
0.0550647
0.0549785
0.0548873
0.05478
0.0546602
0.0545451
0.0544391
0.0543314
0.0542236
0.0541081
0.0539833
0.0538697
0.0746638
0.0681944
0.0617502
0.0793638
0.0793824
0.0794356
0.0795189
0.079617
0.0797245
0.0798412
0.0799636
0.0800717
0.0801786
0.0802849
0.080393
0.0804955
0.0806214
0.0807242
0.0808126
0.0808973
0.0809871
0.0810943
0.0600199
0.0664916
0.0729414
0.00582395
0.00854809
0.0118685
0.0157279
0.0200866
0.0248876
0.0300765
0.0355982
0.0413975
0.0474135
0.00227499
0.00216998
0.00210869
0.00223258
0.00256867
0.000276262
0.000722979
0.00138107
0.00204551
0.0023863
0.00241152
0.0584033
0.00242146
0.0020823
0.00250006
0.000786114
0.000165082
0.000175481
0.00184536
0.00261839
0.000280209
0.000210137
2.20331e-05
-1.74312e-05
7.00287e-06
0.000180031
0.000185776
0.0024384
-1.15575e-05
8.32211e-05
0.0533339
0.00903208
0.0125074
0.01651
0.020977
0.0257943
0.0308804
0.0361467
0.0415164
0.0470282
0.00609882
0.0616262
0.0584155
5.62751e-05
0.000158726
0.00239913
8.40058e-05
0.00283609
0.0220096
0.0319984
0.0458583
0.0132635
0.00962299
0.0174049
0.0419404
0.0268947
0.00657111
0.0483691
0.0458363
0.0111902
0.00783454
0.0151048
0.0195346
0.0244125
0.0351248
0.0406904
0.00511097
0.0296346
0.0605213
0.0680795
0.0616609
0.0734123
0.073457
0.0736551
0.0741533
0.0754883
0.0764531
0.0728722
0.0735356
0.0739691
0.074239
0.0669565
0.0733423
0.000641363
0.000691637
0.00121275
0.00242791
0.0610907
0.0613566
0.0606942
0.0656177
0.0611519
0.00273061
0.061639
0.0532122
0.00284821
0.0685337
0.00286135
0.000497609
0.000591645
0.0435465
9.35041e-05
0.0559328
0.0386408
0.00426785
0.00332577
0.0745492
0.0731821
0.0677144
0.0675133
0.0668524
0.0673483
0.0677151
0.0667365
0.00195693
0.00129743
0.000896633
0.000482071
0.0616232
0.0615238
0.0585194
0.0744126
0.0025365
0.00170751
0.0679207
0.0678313
0.0506865
0.00105069
0.0334092
0.000328672
0.0621394
0.00100301
0.0586913
0.0575722
0.0623343
0.0023054
0.0281807
0.00158144
0.000213418
0.0231403
0.000143266
0.00166555
0.00214521
0.0184086
0.0141209
0.00145481
0.0030887
0.0103357
0.00712381
0.00465631
0.00259764
0.003849
9.59189e-05
0.0758397
0.0751963
0.0738574
0.0601425
0.0593532
0.0590348
0.0588477
0.0582875
0.0576144
0.077173
0.0755819
0.0556373
0.00129533
0.00232144
0.00132226
0.00216784
0.000332523
0.000234464
0.000187139
0.000780374
0.00108898
0.0370769
0.0029177
0.000454028
0.00017585
0.000276424
SCALARS Uy FLOAT
LOOKUP_TABLE default
-0.0700208
-0.035574
-0.0699561
-0.0355181
0.00167525
0.00227945
0.00218571
0.00144063
0.000799608
0.000440078
0.000114216
-9.24805e-05
-5.51059e-05
0.000102206
0.000425211
0.00099609
0
0
-0.00266985
-0.00275476
-0.0122315
-0.0137779
-0.0171141
-0.115805
-0.116004
0.0128847
0.0126
0.00300562
0.000724847
-0.0632044
-0.0563406
-0.0494525
-0.0425315
-0.042342
-0.0491971
-0.056083
-0.0629999
0
0
0
0
0
0
0
0
0
0
0
-0.00263159
-0.00248036
-0.00209488
-0.00160427
-0.00107654
-0.000548083
-0.00234605
-0.0118345
-0.011325
-0.0106984
-0.00995467
-0.00909228
-0.00811077
-0.00700881
-0.00578774
-0.00441745
-0.109282
-0.102701
-0.0961159
-0.0895344
-0.0829565
-0.0763684
-0.0697495
-0.0631076
-0.0564928
-0.0499105
-0.0433584
-0.0368319
-0.0302947
-0.0237192
-0.115955
-0.115904
-0.115853
0.00647445
8.97701e-05
-0.00628598
-0.0126798
-0.0190998
-0.0255441
-0.0320143
-0.0385251
-0.0450374
-0.0515142
-0.0579674
-0.0643888
-0.070789
-0.0772045
-0.0836604
-0.090121
-0.0965774
-0.10303
-0.109488
0.0127793
0.0128602
0.012883
0.00469915
0.00597991
0.00716247
0.00824101
0.00920972
0.0100662
0.0108103
0.0114413
0.0119561
0.0123459
0.000798927
0.000971272
0.00136064
0.00189888
0.00227713
0.000443072
0.000818073
0.00106005
0.00106423
0.000908869
0.000767471
-0.0133662
0.000728224
0.000708488
0.00197113
0.000830701
5.37951e-08
-4.76609e-05
0.00150621
0.00235477
0.000574603
0.000245626
-0.000195664
4.93799e-06
9.70626e-05
3.69793e-05
0.000169785
0.000934359
-8.3576e-05
0.000223605
0.00543037
0.00381336
0.00452706
0.005178
0.00579272
0.00637384
0.00694364
0.00749192
0.00789708
0.00766998
0.00301015
-0.0202573
-0.00865338
-2.15222e-05
0.000335813
0.00136487
0.000140927
0.00203555
0.00220102
0.00280935
0.00430479
0.00173366
0.00147491
0.00195505
0.00375197
0.00247387
0.00121199
0.00135565
-0.00536424
-0.00387198
-0.00311622
-0.00455761
-0.00516458
-0.00568469
-0.00632743
-0.00618762
-0.00232614
-0.00608767
0.00628334
-0.109344
-0.109321
0.000254057
-0.00620802
-0.0194471
-0.0261311
-0.0327843
-0.0580567
-0.0765706
-0.0832136
-0.0897881
-0.0963296
0.00656836
-0.0128128
0.000352405
-0.00108702
-0.00142128
0.000780378
-0.0896826
-0.0962008
-0.0832065
-0.0766292
-0.02744
0.00238734
-0.00991289
-0.00783386
-0.00225255
-0.0271482
0.0025683
0.000513269
2.29292e-06
-0.000433652
-0.000189735
-0.000726685
-0.00123403
0.00100482
-0.00173749
-0.109393
0.00660532
-0.0962496
0.000380766
-0.0129478
-0.0897259
-0.00589986
-0.0832018
-0.00183309
0.000574933
-0.000759636
-0.000634877
0.000292395
-0.102765
-0.0428892
-0.10287
0.00226767
-0.00127239
-0.102809
-0.0200231
-0.00314854
0.000540547
-0.00157498
-0.000724139
-0.0157353
-0.000382859
-0.0495497
-0.0054913
-0.00519572
0.00176535
-0.00166729
-0.000707305
0.000438425
-0.00161378
0.000144007
0.000842242
-0.000124048
-0.00147951
-0.00129129
0.000104505
-0.00036753
-0.0010703
-0.000829171
-0.0006078
-0.00185847
0.00236125
-0.000337691
-0.053632
-0.0480469
-0.0432317
-0.0767301
-0.0700292
-0.0630658
-0.0562806
-0.0364972
-0.0310854
-0.0376681
-0.0403759
-0.0108355
0.00114821
-0.00114379
0.000830629
0.000911325
0.000254172
6.20685e-05
-0.00042346
0.000262234
-3.34494e-05
0.0032682
0.000949486
-0.000197117
-5.99835e-05
-0.000265596
VECTORS S1_Vector float
1168.89     -95.9994    0
902.082     138.033    0
918.754     103.898    0
1183.57     -161.218    0
5007.82     -366.415    0
2464.67     -591.242    0
767.172     -602.184    0
2586.25     2083.97    0
3224.74     -2585.85    0
4374.99     -1898.73    0
1881.86     -885.142    0
404.735     -278.026    0
3.2908     -2.23369    0
1181.11     -968.76    0
4371.85     -2308.86    0
6964.59     -1358.63    0
-1304.2     -209.506    0
4407.85     -992.073    0
-48.6534     -39.4305    0
-2252.98     -467.696    0
15.3705     2.70918    0
506.202     -34.4722    0
985.896     -57.6693    0
1339.03     -181.31    0
1340.49     180.393    0
50.0548     49.9639    0
2249.42     -518.261    0
13583.6     -7385.9    0
-159.783     152.449    0
1407.93     -21.7908    0
1512.68     16.8194    0
1532.46     13.0088    0
1558.98     0.558919    0
1513.8     3.04474    0
1491.43     4.87391    0
1497.32     4.4155    0
1543.52     6.20348    0
-996.862     -98.5852    0
-684.488     -8.35142    0
-301.588     43.2091    0
226.435     158.889    0
1415.48     13.7609    0
2339.04     -406.011    0
2044.72     -862.522    0
990.426     -809.254    0
497.986     417.001    0
646.731     -465.225    0
2088.03     -676.775    0
236.956     115.328    0
564.363     101.876    0
147.613     12.7201    0
-43.4975     -3.5296    0
-113.235     -1.20563    0
-279.313     -12.1172    0
215.92     188.862    0
-111.878     -14.1519    0
-192.028     -20.2416    0
-243.226     -21.7918    0
-295.673     -23.3919    0
-350.493     -25.2341    0
-406.594     -27.0888    0
-468.922     -29.6557    0
-672.201     -44.9335    0
-1536.94     -176.724    0
1097.9     -134.727    0
1018.64     -53.0541    0
924.218     -14.4523    0
925.033     13.4589    0
1018.14     38.8754    0
1151.22     49.8302    0
1208.49     11.7856    0
1189.43     -3.29926    0
1159.65     -1.96607    0
1166.59     -1.54944    0
1197.09     0.974827    0
1285.67     -13.2212    0
1223.03     -31.8621    0
1132.56     -73.855    0
632.599     -38.0137    0
673.93     19.8972    0
745.534     -73.1012    0
160.841     104.119    0
418.032     135.903    0
720.696     114.681    0
936.455     64.5492    0
1058.16     33.8383    0
1153.74     44.3406    0
1276.38     -35.8492    0
1226.39     -0.872985    0
1214.69     -16.4536    0
1164.95     -18.5709    0
1176.59     -8.9215    0
1191.34     -24.3696    0
1194.46     -88.5877    0
1056.67     -118.702    0
994.418     -51.0463    0
919.93     -13.8355    0
926.288     15.591    0
948.055     47.094    0
1240.72     71.6813    0
1332.44     -402.843    0
588.309     -250.566    0
183.587     -126.09    0
14905     -676.277    0
12707.3     -31.143    0
11618.6     -74.9377    0
10523     -112.181    0
9387.29     -155.438    0
8248.23     -201.675    0
7106.87     -250.427    0
5946.88     -298.141    0
4724.01     -348.869    0
3379.65     -436.398    0
128.113     29.639    0
531.657     -89.6447    0
311.085     -167.745    0
2657.95     662.097    0
5816.57     1304.38    0
3861.2     -322.058    0
3021.31     -408.255    0
619.471     -430.34    0
683.486     410.885    0
289.611     -1.794    0
31.2679     -9.11682    0
874.711     78.9728    0
1210.53     1018.5    0
1982.13     -1258.79    0
2457.62     1101.76    0
3326.41     -632.413    0
430.829     394.442    0
449.076     363.89    0
4443.34     -61.4316    0
1654.98     -889.072    0
3404.05     -365.423    0
2289.56     -1258.66    0
-217.803     10.7088    0
459.021     323.442    0
1305.97     40.9995    0
1072.25     -840.848    0
1887.08     -331.077    0
1779.26     -1231.54    0
-97.5336     14.8434    0
2598.18     -262.586    0
1543.3     -951.603    0
8567.43     -930.684    0
8449.47     -690.634    0
6784.81     -564.859    0
6471.21     -539.078    0
5456.17     -718.727    0
4485.99     -863.292    0
3801.36     -924.678    0
3406.78     -675.199    0
3053.15     -565.017    0
8201.69     -1076.16    0
814.678     -12.1452    0
952.059     285.133    0
194.334     -50.3024    0
1816.51     89.2565    0
1292.83     1157.13    0
973.824     128.788    0
5853.84     527.256    0
1775.49     -1099.13    0
2149.77     -1028.29    0
1656.48     -1013.89    0
2746.65     -978.123    0
3226.58     -1113.29    0
1905.77     -1117.54    0
1902.22     -987.274    0
2087.48     -1111.44    0
3088.88     -1244.39    0
1017.82     -993.88    0
247.907     68.3853    0
362.141     16.4993    0
60.582     6.15564    0
537.758     15.3878    0
12.1867     2.80293    0
288.694     22.1175    0
278.444     60.6854    0
275.461     104.499    0
-197.737     -15.8576    0
267.716     41.5557    0
897.687     -678.446    0
751.123     -57.5929    0
863.251     -87.0982    0
504.955     263.433    0
750.489     214.479    0
883.024     39.2842    0
997.976     31.1188    0
1043.75     77.0205    0
1329.04     -36.0143    0
838.852     -76.9722    0
842.505     -35.1253    0
881.313     -15.9121    0
891.164     12.3197    0
529.095     -431.755    0
841.53     97.4555    0
1768.83     -567.753    0
96.3293     6.58645    0
407.09     51.6751    0
295.696     -285.426    0
891.344     18.709    0
889.629     -15.6562    0
887.669     47.825    0
764.692     37.7378    0
801.311     -73.5426    0
3384.81     810.971    0
924.447     188.038    0
884.367     519.371    0
556.098     239.202    0
725.339     13.7688    0
7135.35     -2347.79    0
2729.42     -292.202    0
421.759     -62.0632    0
885.189     856.884    0
112.184     -1.7012    0
996.038     729.781    0
787.127     742.925    0
3212.18     2401.82    0
-393.696     -4.05229    0
764.983     14.1481    0
265.249     250.729    0
851.267     -0.558663    0
640.19     488.226    0
832.45     54.6642    0
840.682     3.76011    0
801.635     325.133    0
792.885     23.2273    0
784.439     134.493    0
1939.9     -735.376    0
630.318     -3.3488    0
219.01     15.7939    0
861.575     622.701    0
860.648     -53.5207    0
1307.04     -5.36714    0
858.295     53.5984    0
3603.31     -422.207    0
887.308     111.315    0
750.733     -0.802913    0
834.479     36.584    0
756.8     417.283    0
1847.14     87.4898    0
761.011     529.547    0
20.3841     0.30009    0
814.867     4.41656    0
581.866     -5.64419    0
1323.08     -8.78712    0
974.656     510.54    0
893.826     446.893    0
5445.51     674.187    0
701.913     407.08    0
631.677     -43.8245    0
2668.95     -875.405    0
686.108     357.051    0
2052.92     -728.798    0
2905.91     465.106    0
1422.01     -1006.68    0
680.714     326.246    0
680.308     305.155    0
635.104     -591.742    0
500.014     -218.356    0
559.972     336.177    0
460.31     333.257    0
897.114     90.0572    0
547.325     74.7991    0
8830.3     -1643.78    0
-247.505     -8.06374    0
1340.16     -6.05955    0
1353.67     23.7762    0
1375.26     37.5628    0
927.126     89.3292    0
1154.57     106.932    0
1314.57     10.151    0
1324.61     -8.94026    0
1175.16     -71.5163    0
1106.65     -9.53622    0
1244.61     -21.0393    0
1301.13     -8.01337    0
895.83     151.255    0
3716.37     -389.642    0
834.634     -102.079    0
2620.87     -57.7273    0
3279.67     1336.42    0
1215.07     116.411    0
668.415     305.507    0
-5.04254     -0.0173488    0
1184.23     36.6117    0
632     -487.977    0
1901.72     -991.514    0
3622.53     1743.67    0
416.756     -25.8454    0
379.418     -128.649    0
357.931     -26.1824    0
VECTORS S2_Vector float
7.40286     -90.1375    0
-18.0668     -118.072    0
-21.2518     -187.927    0
16.7396     -122.892    0
47.8993     -654.644    0
725.282     -3023.44    0
1910.07     -2433.39    0
-421.235     -522.762    0
-538.115     671.068    0
-128.898     297.003    0
412.187     -876.33    0
1444.54     -2102.89    0
1202.17     -1771.1    0
291.025     -354.817    0
-224.494     425.081    0
-166.039     851.146    0
-940.136     -5852.45    0
-197.023     875.386    0
-579.247     -714.734    0
-2600.94     -12529.2    0
-473.944     -2688.91    0
131.611     -1932.62    0
16.7487     -286.331    0
12.2503     -90.4716    0
-11.8861     -88.3249    0
-7.014     -7.02675    0
8.43498     -36.6106    0
-1542.74     2837.31    0
419.737     -439.93    0
-0.457638     29.5686    0
0.247614     22.2696    0
0.238728     28.1224    0
0.0113032     31.5276    0
0.0719517     35.7733    0
0.0549025     16.8003    0
0.0471144     15.9768    0
0.188268     46.844    0
-420.89     -4255.91    0
-32.8109     -2689.21    0
180.016     -1256.47    0
-75.3105     -107.326    0
3.03939     312.639    0
-80.3286     462.775    0
-37.6848     89.3367    0
390.887     -478.397    0
-714.162     -852.859    0
167.582     -232.963    0
-85.0195     262.307    0
-1211.98     -2490.17    0
-540.123     -2992.11    0
-386.649     -4486.93    0
-402.986     -4966.24    0
-56.5948     -5315.48    0
-235.28     -5423.45    0
-2564.85     -2932.32    0
-579.147     -4578.47    0
-604.559     -5735.36    0
-618.212     -6900.09    0
-638.652     -8072.55    0
-666.167     -9252.81    0
-695.651     -10441.5    0
-735.359     -11627.7    0
-864.302     -12929.9    0
-1712.82     -14896.1    0
-5.87615     47.8851    0
-2.28994     43.9671    0
-0.332983     21.2941    0
0.286109     19.6643    0
1.31884     34.5401    0
0.0940145     2.17201    0
-0.279219     -28.6308    0
-0.0151313     5.45506    0
0.0413678     -24.4    0
0.0302827     -22.8003    0
0.00156914     1.92692    0
0.144998     -14.1    0
0.0018124     -0.0695694    0
-1.89954     29.1293    0
16.8846     -280.982    0
-7.86066     -266.245    0
27.1579     -276.975    0
-1.63445     -2.52486    0
-12.0189     -36.9696    0
-7.93943     -49.8943    0
-1.90314     -27.61    0
0.586818     18.3504    0
1.03586     26.9531    0
1.27805     -45.5038    0
0.0104081     -14.6216    0
0.10041     -7.41286    0
0.39773     -24.9494    0
0.288811     -38.0892    0
-0.177869     8.69536    0
5.7014     -76.874    0
-5.02572     44.7382    0
-2.35922     45.9592    0
-0.342667     22.7841    0
0.390136     23.1786    0
1.23905     24.9435    0
4.1714     72.2017    0
-17.7396     58.6754    0
-0.988334     2.32053    0
-1.47615     2.14928    0
-40.1253     884.35    0
-1.56923     640.295    0
-3.54016     548.877    0
-5.50624     516.506    0
-7.49521     452.655    0
-9.16729     374.929    0
-10.3725     294.362    0
-10.483     209.099    0
-9.12444     123.553    0
0.666364     -5.1606    0
-150.657     -651.205    0
131.472     -779.724    0
359.919     -667.475    0
-121.654     -488.373    0
-31.4244     -140.129    0
-12.3235     147.749    0
32.151     -237.935    0
519.257     -747.466    0
-483.069     -803.561    0
7.88682     -1273.19    0
231.994     -795.668    0
-80.1627     -887.89    0
34.0832     40.5094    0
244.46     -384.935    0
-475.8     -1061.34    0
5.41738     -28.4947    0
-621.591     -678.933    0
-600.695     -741.317    0
21.1638     -1530.78    0
572.39     -1065.48    0
-57.4118     534.812    0
91.7196     -166.843    0
134.223     -2729.91    0
-171.598     -243.528    0
-0.902932     -28.7613    0
484.036     -617.241    0
14.8665     -84.7368    0
205.796     -297.322    0
202.312     -1329.36    0
-7.71166     76.3035    0
230.844     -374.381    0
65.6853     -604.667    0
60.7771     -743.569    0
-19.7331     237.025    0
7.58792     -91.0871    0
19.7896     -150.231    0
33.692     -175.076    0
113.636     -467.16    0
35.3151     -178.186    0
19.0161     -102.756    0
-8.94425     68.1667    0
0.80903     -54.2681    0
-312.635     -1043.89    0
86.4007     -333.793    0
18.6018     378.575    0
-425.132     -474.988    0
15.7313     118.952    0
92.4725     1026.67    0
103.081     -166.512    0
258.323     -540.056    0
231.339     -377.958    0
29.7248     -83.4698    0
167.211     -484.614    0
54.3026     -92.6039    0
265.197     -510.967    0
324.404     -609.29    0
184.443     -457.832    0
745.735     -763.697    0
-668.04     -2421.75    0
-359.314     -7886.54    0
-838.287     -8250.18    0
-217.267     -7592.81    0
-1371.56     -5963.3    0
-428.642     -5594.94    0
-842.278     -3864.64    0
-1023.84     -2698.87    0
-629.432     -7848.72    0
-739.92     -4766.81    0
156.224     -206.708    0
-0.696995     9.09015    0
0.317507     -3.14689    0
-60.3095     -115.603    0
-52.946     -185.265    0
0.155126     3.48691    0
0.898819     28.825    0
-2.66114     -36.0628    0
1.12691     -41.5864    0
-2.88161     31.4042    0
-1.6368     39.2599    0
-0.670143     37.1167    0
0.348521     25.2109    0
84.1618     -103.136    0
-16.5331     -142.764    0
301.799     -940.252    0
-260.42     -3808.74    0
-486.885     -3835.62    0
81.9464     -84.8952    0
0.753523     35.8997    0
-0.559157     31.7729    0
2.57285     47.7541    0
1.78952     36.2615    0
0.0319799     -0.348449    0
-123.806     -516.741    0
-133.239     -655.043    0
-701.073     -1193.76    0
-1392.02     -3236.17    0
0.88495     46.619    0
-516.523     1569.81    0
-44.6935     417.476    0
19.7604     -134.284    0
-964.917     -996.791    0
23.27     -1534.52    0
-601.37     -820.777    0
-1139.86     -1207.68    0
521.437     697.368    0
-72.2061     -7015.11    0
0.263759     14.2613    0
-16.8581     -17.8344    0
-0.0279062     42.5222    0
-229.897     -301.455    0
-15.164     -230.924    0
0.176991     39.5715    0
-151.116     -372.587    0
1.4093     48.1077    0
-661.649     -3859.12    0
215.672     -568.937    0
10.91     -2053.5    0
-186.096     -2580.54    0
-348.937     -482.792    0
-2.42374     38.9753    0
-0.040534     9.87107    0
2.4734     39.6076    0
171.151     -1460.69    0
-512.705     -4086.84    0
-0.0550674     51.4887    0
-1.77275     -40.4362    0
-833.022     -1510.8    0
-16.1355     -340.663    0
-1061.04     -1524.82    0
-62.0322     -4213.64    0
-2.26384     -417.684    0
12.1165     -1249.1    0
-0.0122491     1.84434    0
-503.179     -960.603    0
-322.39     -644.808    0
-88.1404     -711.923    0
-1095.11     -1888.27    0
227.977     -3286.01    0
-1.79356     5.46825    0
-1127.09     -2165.81    0
110.256     -310.576    0
-108.378     -677.13    0
1002.65     -1416.33    0
-1161.75     -2424    0
-1195.86     -2666.03    0
588.373     -631.488    0
1173.46     -2687.11    0
-1581.4     -2634.15    0
-1384.13     -1911.83    0
-199.395     -1986.29    0
-840.721     -6151.78    0
-289.135     1553.22    0
-136.839     -4200.08    0
0.0383863     -8.48972    0
0.372288     21.1957    0
0.659132     24.1323    0
0.586144     6.08344    0
-7.36996     -79.575    0
0.0866687     11.2238    0
-0.0285127     4.2245    0
3.58279     -58.8725    0
-0.160656     18.6438    0
-0.0617633     3.6537    0
-0.086945     14.1173    0
-195.378     -1157.16    0
70.3959     -671.43    0
508.561     -4158.17    0
10.1043     -458.745    0
-311.56     -764.59    0
26.7025     278.714    0
45.5519     99.6626    0
-9.31741     -2708.16    0
4.05677     131.219    0
0.23585     -0.30546    0
205.729     -394.588    0
-76.7333     -159.415    0
38.8103     -625.814    0
114.282     -337.046    0
107.571     -1470.56    0
